File : Instances/p56
Use 139 s

21792

0 0 1 1 1 0 0 0 1 0 1 1 1 0 1 1 0 0 1 1 0 1 0 1 1 1 0 1 1 0 
18 19 21 27 2 12 15 27 18 28 4 28 10 3 28 18 3 10 27 27 18 21 23 24 10 18 27 14 4 2 19 19 4 21 27 12 14 8 24 15 18 8 12 4 8 19 3 21 19 14 24 24 21 21 8 12 11 8 18 25 4 2 18 8 3 11 23 14 28 25 18 12 19 8 23 23 10 23 8 24 23 2 8 25 4 10 4 2 27 25 28 19 25 25 2 3 11 12 2 28 28 15 25 18 4 24 4 24 18 3 19 4 27 12 12 8 28 25 14 8 14 11 28 19 4 21 2 11 19 28 11 24 25 10 23 8 3 3 28 10 12 27 11 11 25 2 24 15 27 25 24 14 23 28 8 11 2 15 3 3 3 27 10 24 23 27 23 4 3 21 23 8 19 14 14 2 24 10 4 10 2 21 21 19 12 8 28 23 27 21 2 21 19 4 25 12 25 15 10 19 
